language Essence 1.3
letting nnodes be 120
letting nrings be 60
letting capacity be 45
letting demand be 
{{1, 2},
{1, 4},
{1, 5},
{1, 6},
{1, 8},
{1, 9},
{1, 16},
{1, 17},
{1, 18},
{1, 20},
{1, 21},
{1, 23},
{1, 25},
{1, 27},
{1, 28},
{1, 30},
{1, 32},
{1, 33},
{1, 35},
{1, 37},
{1, 38},
{1, 39},
{1, 41},
{1, 42},
{1, 43},
{1, 44},
{1, 47},
{1, 49},
{1, 50},
{1, 51},
{1, 52},
{1, 56},
{1, 57},
{1, 59},
{1, 60},
{1, 61},
{1, 62},
{1, 63},
{1, 65},
{1, 66},
{1, 68},
{1, 73},
{1, 77},
{1, 78},
{1, 79},
{1, 81},
{1, 82},
{1, 83},
{1, 84},
{1, 87},
{1, 88},
{1, 89},
{1, 91},
{1, 92},
{1, 93},
{1, 96},
{1, 97},
{1, 99},
{1, 100},
{1, 101},
{1, 102},
{1, 103},
{1, 104},
{1, 108},
{1, 109},
{1, 110},
{1, 112},
{1, 113},
{2, 6},
{2, 7},
{2, 9},
{2, 13},
{2, 14},
{2, 19},
{2, 20},
{2, 22},
{2, 23},
{2, 25},
{2, 26},
{2, 27},
{2, 28},
{2, 29},
{2, 31},
{2, 32},
{2, 33},
{2, 36},
{2, 39},
{2, 44},
{2, 45},
{2, 47},
{2, 50},
{2, 53},
{2, 55},
{2, 56},
{2, 58},
{2, 59},
{2, 72},
{2, 73},
{2, 75},
{2, 76},
{2, 77},
{2, 82},
{2, 83},
{2, 84},
{2, 86},
{2, 88},
{2, 90},
{2, 93},
{2, 94},
{2, 98},
{2, 101},
{2, 102},
{2, 103},
{2, 105},
{2, 106},
{2, 107},
{2, 108},
{2, 109},
{2, 110},
{2, 111},
{2, 116},
{2, 117},
{2, 118},
{2, 120},
{3, 4},
{3, 6},
{3, 7},
{3, 11},
{3, 12},
{3, 14},
{3, 15},
{3, 23},
{3, 25},
{3, 26},
{3, 27},
{3, 29},
{3, 31},
{3, 34},
{3, 36},
{3, 40},
{3, 41},
{3, 44},
{3, 45},
{3, 46},
{3, 47},
{3, 48},
{3, 55},
{3, 58},
{3, 62},
{3, 63},
{3, 64},
{3, 69},
{3, 72},
{3, 73},
{3, 74},
{3, 75},
{3, 76},
{3, 77},
{3, 78},
{3, 81},
{3, 82},
{3, 83},
{3, 88},
{3, 89},
{3, 95},
{3, 96},
{3, 99},
{3, 100},
{3, 101},
{3, 102},
{3, 103},
{3, 104},
{3, 105},
{3, 106},
{3, 107},
{3, 109},
{3, 111},
{3, 114},
{3, 115},
{3, 116},
{3, 119},
{3, 120},
{4, 6},
{4, 9},
{4, 10},
{4, 12},
{4, 15},
{4, 19},
{4, 21},
{4, 23},
{4, 26},
{4, 27},
{4, 34},
{4, 36},
{4, 37},
{4, 38},
{4, 39},
{4, 43},
{4, 45},
{4, 46},
{4, 47},
{4, 49},
{4, 53},
{4, 54},
{4, 56},
{4, 57},
{4, 58},
{4, 59},
{4, 62},
{4, 63},
{4, 66},
{4, 68},
{4, 75},
{4, 77},
{4, 78},
{4, 79},
{4, 82},
{4, 83},
{4, 84},
{4, 85},
{4, 89},
{4, 91},
{4, 92},
{4, 93},
{4, 94},
{4, 95},
{4, 96},
{4, 97},
{4, 98},
{4, 99},
{4, 100},
{4, 101},
{4, 104},
{4, 105},
{4, 107},
{4, 111},
{4, 113},
{4, 116},
{4, 120},
{5, 6},
{5, 7},
{5, 8},
{5, 9},
{5, 10},
{5, 11},
{5, 12},
{5, 13},
{5, 23},
{5, 24},
{5, 26},
{5, 29},
{5, 30},
{5, 32},
{5, 33},
{5, 35},
{5, 37},
{5, 39},
{5, 45},
{5, 47},
{5, 51},
{5, 52},
{5, 54},
{5, 56},
{5, 57},
{5, 58},
{5, 60},
{5, 61},
{5, 62},
{5, 63},
{5, 64},
{5, 65},
{5, 67},
{5, 68},
{5, 69},
{5, 70},
{5, 72},
{5, 74},
{5, 75},
{5, 76},
{5, 80},
{5, 81},
{5, 82},
{5, 84},
{5, 85},
{5, 86},
{5, 87},
{5, 90},
{5, 91},
{5, 92},
{5, 94},
{5, 95},
{5, 98},
{5, 100},
{5, 101},
{5, 102},
{5, 104},
{5, 105},
{5, 106},
{5, 107},
{5, 111},
{5, 113},
{5, 114},
{5, 115},
{5, 116},
{5, 117},
{5, 119},
{5, 120},
{6, 10},
{6, 12},
{6, 14},
{6, 18},
{6, 19},
{6, 22},
{6, 23},
{6, 26},
{6, 27},
{6, 30},
{6, 32},
{6, 34},
{6, 35},
{6, 36},
{6, 38},
{6, 40},
{6, 43},
{6, 44},
{6, 46},
{6, 49},
{6, 55},
{6, 56},
{6, 59},
{6, 61},
{6, 72},
{6, 76},
{6, 77},
{6, 78},
{6, 81},
{6, 83},
{6, 85},
{6, 86},
{6, 90},
{6, 93},
{6, 95},
{6, 96},
{6, 99},
{6, 101},
{6, 102},
{6, 104},
{6, 109},
{6, 110},
{6, 116},
{6, 117},
{6, 119},
{6, 120},
{7, 8},
{7, 9},
{7, 10},
{7, 15},
{7, 16},
{7, 17},
{7, 19},
{7, 22},
{7, 25},
{7, 26},
{7, 28},
{7, 29},
{7, 30},
{7, 31},
{7, 32},
{7, 33},
{7, 34},
{7, 36},
{7, 39},
{7, 44},
{7, 45},
{7, 47},
{7, 48},
{7, 50},
{7, 51},
{7, 52},
{7, 56},
{7, 57},
{7, 58},
{7, 60},
{7, 61},
{7, 62},
{7, 66},
{7, 68},
{7, 71},
{7, 74},
{7, 78},
{7, 79},
{7, 80},
{7, 81},
{7, 82},
{7, 84},
{7, 85},
{7, 86},
{7, 88},
{7, 89},
{7, 91},
{7, 92},
{7, 93},
{7, 94},
{7, 95},
{7, 97},
{7, 98},
{7, 99},
{7, 101},
{7, 108},
{7, 110},
{7, 111},
{7, 113},
{7, 116},
{7, 118},
{8, 9},
{8, 11},
{8, 12},
{8, 16},
{8, 19},
{8, 20},
{8, 21},
{8, 24},
{8, 25},
{8, 34},
{8, 36},
{8, 37},
{8, 42},
{8, 46},
{8, 48},
{8, 49},
{8, 50},
{8, 52},
{8, 53},
{8, 54},
{8, 55},
{8, 56},
{8, 57},
{8, 58},
{8, 60},
{8, 61},
{8, 62},
{8, 63},
{8, 65},
{8, 66},
{8, 67},
{8, 68},
{8, 69},
{8, 71},
{8, 74},
{8, 75},
{8, 80},
{8, 84},
{8, 85},
{8, 90},
{8, 92},
{8, 95},
{8, 96},
{8, 100},
{8, 101},
{8, 102},
{8, 105},
{8, 110},
{8, 112},
{8, 113},
{8, 115},
{8, 116},
{8, 118},
{8, 119},
{9, 10},
{9, 12},
{9, 14},
{9, 15},
{9, 16},
{9, 17},
{9, 18},
{9, 19},
{9, 20},
{9, 21},
{9, 23},
{9, 27},
{9, 28},
{9, 30},
{9, 31},
{9, 32},
{9, 33},
{9, 34},
{9, 37},
{9, 40},
{9, 41},
{9, 43},
{9, 45},
{9, 47},
{9, 48},
{9, 53},
{9, 58},
{9, 60},
{9, 61},
{9, 67},
{9, 68},
{9, 72},
{9, 74},
{9, 79},
{9, 88},
{9, 89},
{9, 91},
{9, 92},
{9, 96},
{9, 99},
{9, 101},
{9, 104},
{9, 105},
{9, 107},
{9, 108},
{9, 109},
{9, 111},
{9, 114},
{9, 119},
{10, 11},
{10, 12},
{10, 13},
{10, 14},
{10, 16},
{10, 17},
{10, 21},
{10, 23},
{10, 24},
{10, 25},
{10, 26},
{10, 28},
{10, 29},
{10, 30},
{10, 32},
{10, 33},
{10, 37},
{10, 38},
{10, 39},
{10, 41},
{10, 42},
{10, 44},
{10, 46},
{10, 51},
{10, 52},
{10, 54},
{10, 55},
{10, 56},
{10, 57},
{10, 58},
{10, 59},
{10, 60},
{10, 61},
{10, 62},
{10, 65},
{10, 67},
{10, 70},
{10, 76},
{10, 77},
{10, 78},
{10, 80},
{10, 82},
{10, 84},
{10, 86},
{10, 87},
{10, 88},
{10, 89},
{10, 95},
{10, 97},
{10, 101},
{10, 102},
{10, 103},
{10, 108},
{10, 109},
{10, 110},
{10, 112},
{10, 115},
{10, 116},
{10, 117},
{10, 120},
{11, 12},
{11, 17},
{11, 20},
{11, 21},
{11, 23},
{11, 24},
{11, 25},
{11, 27},
{11, 28},
{11, 29},
{11, 30},
{11, 35},
{11, 38},
{11, 39},
{11, 40},
{11, 41},
{11, 43},
{11, 44},
{11, 47},
{11, 48},
{11, 50},
{11, 51},
{11, 54},
{11, 55},
{11, 56},
{11, 58},
{11, 59},
{11, 61},
{11, 62},
{11, 64},
{11, 65},
{11, 66},
{11, 67},
{11, 69},
{11, 72},
{11, 73},
{11, 74},
{11, 75},
{11, 77},
{11, 78},
{11, 80},
{11, 81},
{11, 82},
{11, 83},
{11, 84},
{11, 86},
{11, 87},
{11, 88},
{11, 89},
{11, 91},
{11, 92},
{11, 93},
{11, 94},
{11, 97},
{11, 99},
{11, 101},
{11, 102},
{11, 103},
{11, 104},
{11, 106},
{11, 108},
{11, 110},
{11, 111},
{11, 113},
{11, 114},
{12, 14},
{12, 16},
{12, 17},
{12, 18},
{12, 19},
{12, 21},
{12, 22},
{12, 23},
{12, 24},
{12, 26},
{12, 28},
{12, 31},
{12, 32},
{12, 33},
{12, 34},
{12, 37},
{12, 40},
{12, 41},
{12, 42},
{12, 45},
{12, 47},
{12, 49},
{12, 50},
{12, 52},
{12, 53},
{12, 54},
{12, 55},
{12, 56},
{12, 57},
{12, 58},
{12, 59},
{12, 60},
{12, 63},
{12, 64},
{12, 65},
{12, 66},
{12, 67},
{12, 68},
{12, 69},
{12, 70},
{12, 72},
{12, 75},
{12, 76},
{12, 79},
{12, 80},
{12, 82},
{12, 85},
{12, 88},
{12, 91},
{12, 93},
{12, 95},
{12, 96},
{12, 102},
{12, 105},
{12, 110},
{12, 113},
{12, 114},
{12, 115},
{12, 116},
{12, 117},
{12, 118},
{12, 120},
{13, 15},
{13, 18},
{13, 19},
{13, 21},
{13, 24},
{13, 33},
{13, 34},
{13, 35},
{13, 36},
{13, 37},
{13, 40},
{13, 42},
{13, 43},
{13, 44},
{13, 47},
{13, 48},
{13, 49},
{13, 50},
{13, 53},
{13, 57},
{13, 58},
{13, 60},
{13, 64},
{13, 65},
{13, 70},
{13, 72},
{13, 73},
{13, 75},
{13, 76},
{13, 77},
{13, 78},
{13, 79},
{13, 80},
{13, 81},
{13, 83},
{13, 85},
{13, 86},
{13, 89},
{13, 90},
{13, 91},
{13, 96},
{13, 99},
{13, 100},
{13, 101},
{13, 102},
{13, 104},
{13, 106},
{13, 107},
{13, 109},
{13, 111},
{13, 112},
{13, 114},
{13, 115},
{13, 116},
{13, 117},
{13, 119},
{14, 15},
{14, 20},
{14, 21},
{14, 22},
{14, 23},
{14, 24},
{14, 25},
{14, 27},
{14, 28},
{14, 29},
{14, 31},
{14, 36},
{14, 37},
{14, 41},
{14, 45},
{14, 46},
{14, 49},
{14, 51},
{14, 54},
{14, 57},
{14, 59},
{14, 61},
{14, 62},
{14, 66},
{14, 70},
{14, 74},
{14, 75},
{14, 76},
{14, 83},
{14, 86},
{14, 88},
{14, 92},
{14, 95},
{14, 97},
{14, 101},
{14, 102},
{14, 108},
{14, 112},
{14, 113},
{14, 114},
{14, 115},
{14, 117},
{14, 118},
{15, 16},
{15, 17},
{15, 18},
{15, 20},
{15, 24},
{15, 25},
{15, 26},
{15, 29},
{15, 31},
{15, 32},
{15, 33},
{15, 35},
{15, 42},
{15, 43},
{15, 47},
{15, 49},
{15, 50},
{15, 51},
{15, 52},
{15, 58},
{15, 60},
{15, 61},
{15, 65},
{15, 66},
{15, 67},
{15, 72},
{15, 75},
{15, 80},
{15, 81},
{15, 82},
{15, 83},
{15, 84},
{15, 85},
{15, 86},
{15, 87},
{15, 90},
{15, 91},
{15, 92},
{15, 94},
{15, 97},
{15, 98},
{15, 101},
{15, 102},
{15, 103},
{15, 104},
{15, 106},
{15, 107},
{15, 109},
{15, 110},
{15, 111},
{15, 112},
{15, 113},
{15, 116},
{15, 119},
{15, 120},
{16, 18},
{16, 19},
{16, 20},
{16, 21},
{16, 23},
{16, 25},
{16, 27},
{16, 28},
{16, 30},
{16, 31},
{16, 34},
{16, 35},
{16, 37},
{16, 39},
{16, 43},
{16, 44},
{16, 45},
{16, 48},
{16, 51},
{16, 52},
{16, 53},
{16, 55},
{16, 56},
{16, 60},
{16, 63},
{16, 65},
{16, 66},
{16, 71},
{16, 72},
{16, 73},
{16, 77},
{16, 79},
{16, 80},
{16, 81},
{16, 83},
{16, 84},
{16, 87},
{16, 88},
{16, 89},
{16, 91},
{16, 94},
{16, 96},
{16, 97},
{16, 102},
{16, 104},
{16, 105},
{16, 106},
{16, 108},
{16, 109},
{16, 113},
{16, 114},
{16, 119},
{16, 120},
{17, 18},
{17, 19},
{17, 24},
{17, 25},
{17, 26},
{17, 29},
{17, 30},
{17, 33},
{17, 35},
{17, 36},
{17, 37},
{17, 38},
{17, 39},
{17, 40},
{17, 43},
{17, 46},
{17, 47},
{17, 48},
{17, 49},
{17, 50},
{17, 51},
{17, 53},
{17, 55},
{17, 56},
{17, 59},
{17, 60},
{17, 61},
{17, 65},
{17, 67},
{17, 68},
{17, 74},
{17, 78},
{17, 80},
{17, 82},
{17, 83},
{17, 86},
{17, 87},
{17, 88},
{17, 89},
{17, 90},
{17, 92},
{17, 93},
{17, 94},
{17, 96},
{17, 97},
{17, 99},
{17, 102},
{17, 106},
{17, 108},
{17, 109},
{17, 110},
{17, 111},
{17, 113},
{17, 114},
{17, 115},
{17, 116},
{17, 117},
{17, 119},
{17, 120},
{18, 20},
{18, 21},
{18, 22},
{18, 24},
{18, 25},
{18, 27},
{18, 30},
{18, 31},
{18, 32},
{18, 34},
{18, 36},
{18, 37},
{18, 38},
{18, 39},
{18, 40},
{18, 43},
{18, 44},
{18, 46},
{18, 47},
{18, 49},
{18, 50},
{18, 55},
{18, 56},
{18, 57},
{18, 58},
{18, 59},
{18, 61},
{18, 62},
{18, 63},
{18, 65},
{18, 68},
{18, 69},
{18, 71},
{18, 73},
{18, 75},
{18, 76},
{18, 78},
{18, 79},
{18, 80},
{18, 85},
{18, 86},
{18, 88},
{18, 91},
{18, 95},
{18, 96},
{18, 98},
{18, 100},
{18, 103},
{18, 104},
{18, 105},
{18, 108},
{18, 110},
{18, 112},
{18, 113},
{18, 114},
{18, 115},
{18, 116},
{18, 119},
{19, 21},
{19, 22},
{19, 23},
{19, 26},
{19, 27},
{19, 28},
{19, 30},
{19, 31},
{19, 33},
{19, 36},
{19, 37},
{19, 39},
{19, 41},
{19, 42},
{19, 44},
{19, 45},
{19, 46},
{19, 50},
{19, 52},
{19, 54},
{19, 55},
{19, 56},
{19, 58},
{19, 63},
{19, 64},
{19, 66},
{19, 67},
{19, 68},
{19, 70},
{19, 72},
{19, 73},
{19, 74},
{19, 77},
{19, 78},
{19, 79},
{19, 80},
{19, 81},
{19, 82},
{19, 88},
{19, 90},
{19, 91},
{19, 92},
{19, 94},
{19, 98},
{19, 99},
{19, 100},
{19, 101},
{19, 103},
{19, 104},
{19, 105},
{19, 107},
{19, 109},
{19, 111},
{19, 114},
{19, 117},
{19, 118},
{19, 120},
{20, 21},
{20, 23},
{20, 25},
{20, 28},
{20, 29},
{20, 30},
{20, 31},
{20, 32},
{20, 33},
{20, 34},
{20, 40},
{20, 43},
{20, 44},
{20, 46},
{20, 50},
{20, 56},
{20, 57},
{20, 62},
{20, 65},
{20, 66},
{20, 68},
{20, 70},
{20, 71},
{20, 75},
{20, 76},
{20, 77},
{20, 78},
{20, 79},
{20, 80},
{20, 82},
{20, 83},
{20, 84},
{20, 85},
{20, 89},
{20, 90},
{20, 91},
{20, 93},
{20, 94},
{20, 95},
{20, 96},
{20, 97},
{20, 98},
{20, 99},
{20, 104},
{20, 108},
{20, 109},
{20, 113},
{20, 116},
{20, 119},
{21, 24},
{21, 29},
{21, 30},
{21, 32},
{21, 36},
{21, 37},
{21, 38},
{21, 40},
{21, 41},
{21, 42},
{21, 45},
{21, 46},
{21, 47},
{21, 48},
{21, 49},
{21, 52},
{21, 53},
{21, 54},
{21, 56},
{21, 57},
{21, 58},
{21, 59},
{21, 61},
{21, 62},
{21, 66},
{21, 68},
{21, 69},
{21, 70},
{21, 71},
{21, 75},
{21, 77},
{21, 80},
{21, 82},
{21, 85},
{21, 86},
{21, 87},
{21, 90},
{21, 91},
{21, 92},
{21, 94},
{21, 97},
{21, 98},
{21, 99},
{21, 100},
{21, 101},
{21, 102},
{21, 103},
{21, 105},
{21, 106},
{21, 107},
{21, 109},
{21, 112},
{21, 115},
{21, 116},
{21, 117},
{21, 119},
{21, 120},
{22, 26},
{22, 31},
{22, 32},
{22, 33},
{22, 36},
{22, 40},
{22, 42},
{22, 43},
{22, 46},
{22, 47},
{22, 48},
{22, 50},
{22, 52},
{22, 54},
{22, 55},
{22, 58},
{22, 60},
{22, 63},
{22, 64},
{22, 65},
{22, 67},
{22, 69},
{22, 70},
{22, 74},
{22, 75},
{22, 76},
{22, 77},
{22, 78},
{22, 79},
{22, 80},
{22, 81},
{22, 83},
{22, 84},
{22, 85},
{22, 86},
{22, 87},
{22, 88},
{22, 89},
{22, 91},
{22, 101},
{22, 102},
{22, 108},
{22, 109},
{22, 110},
{22, 113},
{22, 114},
{22, 116},
{22, 118},
{22, 119},
{22, 120},
{23, 24},
{23, 25},
{23, 26},
{23, 31},
{23, 33},
{23, 35},
{23, 36},
{23, 37},
{23, 39},
{23, 41},
{23, 42},
{23, 43},
{23, 45},
{23, 48},
{23, 53},
{23, 55},
{23, 57},
{23, 58},
{23, 59},
{23, 61},
{23, 62},
{23, 64},
{23, 68},
{23, 69},
{23, 73},
{23, 74},
{23, 76},
{23, 77},
{23, 80},
{23, 85},
{23, 86},
{23, 88},
{23, 89},
{23, 92},
{23, 93},
{23, 96},
{23, 99},
{23, 102},
{23, 103},
{23, 105},
{23, 106},
{23, 108},
{23, 111},
{23, 114},
{23, 115},
{23, 117},
{23, 119},
{24, 25},
{24, 26},
{24, 35},
{24, 36},
{24, 38},
{24, 39},
{24, 40},
{24, 41},
{24, 43},
{24, 44},
{24, 46},
{24, 48},
{24, 49},
{24, 53},
{24, 55},
{24, 56},
{24, 58},
{24, 61},
{24, 62},
{24, 63},
{24, 64},
{24, 67},
{24, 70},
{24, 72},
{24, 73},
{24, 75},
{24, 77},
{24, 78},
{24, 80},
{24, 81},
{24, 84},
{24, 86},
{24, 87},
{24, 88},
{24, 91},
{24, 92},
{24, 93},
{24, 94},
{24, 95},
{24, 96},
{24, 99},
{24, 100},
{24, 102},
{24, 103},
{24, 104},
{24, 105},
{24, 106},
{24, 107},
{24, 109},
{24, 110},
{24, 111},
{24, 112},
{24, 113},
{24, 114},
{24, 116},
{24, 118},
{24, 120},
{25, 27},
{25, 28},
{25, 29},
{25, 30},
{25, 31},
{25, 32},
{25, 33},
{25, 34},
{25, 37},
{25, 39},
{25, 40},
{25, 44},
{25, 48},
{25, 53},
{25, 55},
{25, 61},
{25, 62},
{25, 65},
{25, 66},
{25, 69},
{25, 70},
{25, 73},
{25, 74},
{25, 76},
{25, 77},
{25, 80},
{25, 83},
{25, 84},
{25, 88},
{25, 89},
{25, 90},
{25, 92},
{25, 93},
{25, 94},
{25, 99},
{25, 100},
{25, 101},
{25, 102},
{25, 106},
{25, 108},
{25, 111},
{25, 113},
{25, 114},
{25, 117},
{25, 118},
{25, 120},
{26, 27},
{26, 32},
{26, 34},
{26, 36},
{26, 37},
{26, 38},
{26, 39},
{26, 40},
{26, 42},
{26, 43},
{26, 44},
{26, 45},
{26, 47},
{26, 48},
{26, 49},
{26, 51},
{26, 52},
{26, 53},
{26, 55},
{26, 56},
{26, 57},
{26, 58},
{26, 59},
{26, 60},
{26, 61},
{26, 66},
{26, 67},
{26, 68},
{26, 74},
{26, 75},
{26, 76},
{26, 79},
{26, 83},
{26, 86},
{26, 88},
{26, 89},
{26, 90},
{26, 91},
{26, 92},
{26, 94},
{26, 104},
{26, 108},
{26, 109},
{26, 110},
{26, 113},
{26, 114},
{26, 116},
{26, 117},
{26, 119},
{27, 28},
{27, 31},
{27, 34},
{27, 35},
{27, 37},
{27, 39},
{27, 40},
{27, 41},
{27, 48},
{27, 51},
{27, 53},
{27, 56},
{27, 61},
{27, 64},
{27, 65},
{27, 68},
{27, 69},
{27, 70},
{27, 73},
{27, 76},
{27, 77},
{27, 78},
{27, 79},
{27, 87},
{27, 89},
{27, 90},
{27, 93},
{27, 95},
{27, 96},
{27, 97},
{27, 105},
{27, 106},
{27, 107},
{27, 108},
{27, 109},
{27, 110},
{27, 111},
{27, 112},
{27, 116},
{27, 119},
{28, 29},
{28, 31},
{28, 32},
{28, 33},
{28, 38},
{28, 40},
{28, 41},
{28, 42},
{28, 43},
{28, 44},
{28, 45},
{28, 46},
{28, 49},
{28, 50},
{28, 51},
{28, 52},
{28, 54},
{28, 56},
{28, 57},
{28, 58},
{28, 60},
{28, 62},
{28, 63},
{28, 64},
{28, 66},
{28, 67},
{28, 68},
{28, 70},
{28, 71},
{28, 72},
{28, 73},
{28, 76},
{28, 78},
{28, 79},
{28, 80},
{28, 81},
{28, 83},
{28, 84},
{28, 85},
{28, 86},
{28, 87},
{28, 91},
{28, 92},
{28, 96},
{28, 98},
{28, 100},
{28, 101},
{28, 103},
{28, 104},
{28, 105},
{28, 106},
{28, 107},
{28, 114},
{28, 116},
{29, 35},
{29, 41},
{29, 44},
{29, 45},
{29, 48},
{29, 49},
{29, 51},
{29, 57},
{29, 59},
{29, 60},
{29, 61},
{29, 62},
{29, 64},
{29, 65},
{29, 66},
{29, 68},
{29, 72},
{29, 74},
{29, 77},
{29, 78},
{29, 81},
{29, 82},
{29, 83},
{29, 85},
{29, 91},
{29, 96},
{29, 97},
{29, 98},
{29, 100},
{29, 102},
{29, 103},
{29, 104},
{29, 105},
{29, 106},
{29, 109},
{29, 111},
{29, 112},
{29, 113},
{29, 114},
{29, 115},
{29, 119},
{29, 120},
{30, 31},
{30, 32},
{30, 38},
{30, 39},
{30, 41},
{30, 42},
{30, 43},
{30, 44},
{30, 45},
{30, 46},
{30, 48},
{30, 50},
{30, 51},
{30, 55},
{30, 56},
{30, 58},
{30, 59},
{30, 61},
{30, 63},
{30, 64},
{30, 65},
{30, 68},
{30, 71},
{30, 72},
{30, 73},
{30, 74},
{30, 77},
{30, 78},
{30, 80},
{30, 82},
{30, 87},
{30, 89},
{30, 91},
{30, 92},
{30, 93},
{30, 95},
{30, 96},
{30, 98},
{30, 99},
{30, 101},
{30, 104},
{30, 105},
{30, 106},
{30, 108},
{30, 109},
{30, 111},
{30, 112},
{30, 116},
{30, 118},
{31, 32},
{31, 33},
{31, 34},
{31, 35},
{31, 36},
{31, 40},
{31, 42},
{31, 45},
{31, 46},
{31, 47},
{31, 48},
{31, 49},
{31, 50},
{31, 51},
{31, 53},
{31, 54},
{31, 55},
{31, 57},
{31, 59},
{31, 60},
{31, 61},
{31, 66},
{31, 67},
{31, 68},
{31, 69},
{31, 74},
{31, 76},
{31, 77},
{31, 79},
{31, 80},
{31, 81},
{31, 82},
{31, 89},
{31, 90},
{31, 93},
{31, 94},
{31, 95},
{31, 100},
{31, 105},
{31, 112},
{31, 115},
{31, 116},
{31, 118},
{31, 119},
{32, 33},
{32, 34},
{32, 35},
{32, 36},
{32, 39},
{32, 40},
{32, 41},
{32, 42},
{32, 43},
{32, 44},
{32, 45},
{32, 46},
{32, 48},
{32, 51},
{32, 53},
{32, 54},
{32, 56},
{32, 57},
{32, 58},
{32, 59},
{32, 60},
{32, 61},
{32, 65},
{32, 66},
{32, 68},
{32, 71},
{32, 73},
{32, 75},
{32, 77},
{32, 79},
{32, 80},
{32, 83},
{32, 85},
{32, 89},
{32, 92},
{32, 93},
{32, 94},
{32, 96},
{32, 97},
{32, 100},
{32, 103},
{32, 105},
{32, 106},
{32, 107},
{32, 109},
{32, 111},
{32, 112},
{32, 114},
{32, 115},
{32, 116},
{32, 118},
{32, 119},
{33, 34},
{33, 35},
{33, 36},
{33, 37},
{33, 39},
{33, 40},
{33, 41},
{33, 44},
{33, 45},
{33, 46},
{33, 47},
{33, 48},
{33, 53},
{33, 54},
{33, 55},
{33, 56},
{33, 57},
{33, 59},
{33, 60},
{33, 61},
{33, 63},
{33, 65},
{33, 67},
{33, 70},
{33, 71},
{33, 72},
{33, 73},
{33, 74},
{33, 75},
{33, 76},
{33, 77},
{33, 79},
{33, 80},
{33, 81},
{33, 83},
{33, 84},
{33, 87},
{33, 89},
{33, 91},
{33, 94},
{33, 95},
{33, 96},
{33, 99},
{33, 100},
{33, 103},
{33, 105},
{33, 106},
{33, 110},
{33, 115},
{33, 118},
{34, 37},
{34, 38},
{34, 40},
{34, 42},
{34, 44},
{34, 45},
{34, 46},
{34, 54},
{34, 56},
{34, 57},
{34, 58},
{34, 59},
{34, 60},
{34, 70},
{34, 74},
{34, 76},
{34, 77},
{34, 80},
{34, 82},
{34, 84},
{34, 89},
{34, 90},
{34, 94},
{34, 95},
{34, 96},
{34, 97},
{34, 99},
{34, 102},
{34, 107},
{34, 109},
{34, 111},
{34, 114},
{34, 115},
{34, 116},
{34, 118},
{35, 36},
{35, 41},
{35, 42},
{35, 43},
{35, 44},
{35, 45},
{35, 46},
{35, 47},
{35, 48},
{35, 50},
{35, 51},
{35, 55},
{35, 57},
{35, 58},
{35, 60},
{35, 62},
{35, 64},
{35, 65},
{35, 66},
{35, 67},
{35, 69},
{35, 70},
{35, 71},
{35, 72},
{35, 74},
{35, 76},
{35, 78},
{35, 82},
{35, 84},
{35, 88},
{35, 89},
{35, 90},
{35, 91},
{35, 92},
{35, 93},
{35, 94},
{35, 95},
{35, 101},
{35, 104},
{35, 107},
{35, 108},
{35, 109},
{35, 112},
{35, 114},
{35, 115},
{35, 118},
{35, 119},
{35, 120},
{36, 38},
{36, 40},
{36, 42},
{36, 43},
{36, 44},
{36, 45},
{36, 46},
{36, 50},
{36, 53},
{36, 57},
{36, 60},
{36, 61},
{36, 64},
{36, 68},
{36, 69},
{36, 71},
{36, 72},
{36, 78},
{36, 80},
{36, 81},
{36, 87},
{36, 92},
{36, 93},
{36, 99},
{36, 100},
{36, 101},
{36, 104},
{36, 105},
{36, 106},
{36, 107},
{36, 108},
{36, 111},
{36, 112},
{36, 114},
{36, 116},
{36, 118},
{36, 119},
{36, 120},
{37, 39},
{37, 40},
{37, 41},
{37, 43},
{37, 44},
{37, 45},
{37, 47},
{37, 52},
{37, 53},
{37, 56},
{37, 57},
{37, 58},
{37, 60},
{37, 61},
{37, 63},
{37, 64},
{37, 67},
{37, 68},
{37, 74},
{37, 75},
{37, 79},
{37, 81},
{37, 82},
{37, 83},
{37, 84},
{37, 85},
{37, 86},
{37, 90},
{37, 92},
{37, 95},
{37, 96},
{37, 97},
{37, 98},
{37, 100},
{37, 101},
{37, 102},
{37, 104},
{37, 107},
{37, 108},
{37, 110},
{37, 111},
{37, 112},
{37, 115},
{37, 116},
{37, 119},
{38, 39},
{38, 44},
{38, 45},
{38, 48},
{38, 49},
{38, 50},
{38, 52},
{38, 53},
{38, 54},
{38, 55},
{38, 58},
{38, 61},
{38, 63},
{38, 64},
{38, 65},
{38, 66},
{38, 68},
{38, 69},
{38, 72},
{38, 73},
{38, 75},
{38, 76},
{38, 81},
{38, 88},
{38, 92},
{38, 93},
{38, 96},
{38, 97},
{38, 98},
{38, 99},
{38, 103},
{38, 106},
{38, 107},
{38, 108},
{38, 109},
{38, 111},
{38, 112},
{38, 114},
{39, 40},
{39, 42},
{39, 43},
{39, 44},
{39, 50},
{39, 51},
{39, 57},
{39, 59},
{39, 60},
{39, 61},
{39, 62},
{39, 64},
{39, 66},
{39, 69},
{39, 70},
{39, 71},
{39, 72},
{39, 73},
{39, 78},
{39, 80},
{39, 81},
{39, 83},
{39, 86},
{39, 87},
{39, 88},
{39, 91},
{39, 93},
{39, 94},
{39, 95},
{39, 96},
{39, 101},
{39, 104},
{39, 106},
{39, 109},
{39, 118},
{39, 119},
{39, 120},
{40, 41},
{40, 46},
{40, 47},
{40, 50},
{40, 51},
{40, 53},
{40, 54},
{40, 55},
{40, 56},
{40, 57},
{40, 58},
{40, 63},
{40, 64},
{40, 65},
{40, 66},
{40, 68},
{40, 69},
{40, 73},
{40, 75},
{40, 76},
{40, 80},
{40, 81},
{40, 82},
{40, 84},
{40, 85},
{40, 86},
{40, 87},
{40, 88},
{40, 89},
{40, 90},
{40, 91},
{40, 92},
{40, 96},
{40, 98},
{40, 99},
{40, 100},
{40, 101},
{40, 105},
{40, 106},
{40, 110},
{40, 111},
{40, 115},
{40, 116},
{40, 117},
{41, 44},
{41, 46},
{41, 47},
{41, 51},
{41, 52},
{41, 53},
{41, 54},
{41, 55},
{41, 58},
{41, 60},
{41, 62},
{41, 63},
{41, 64},
{41, 65},
{41, 66},
{41, 67},
{41, 69},
{41, 72},
{41, 73},
{41, 74},
{41, 76},
{41, 77},
{41, 78},
{41, 80},
{41, 81},
{41, 82},
{41, 85},
{41, 87},
{41, 88},
{41, 89},
{41, 92},
{41, 93},
{41, 95},
{41, 100},
{41, 104},
{41, 107},
{41, 110},
{41, 112},
{41, 113},
{41, 115},
{41, 117},
{41, 119},
{42, 44},
{42, 45},
{42, 51},
{42, 52},
{42, 53},
{42, 54},
{42, 56},
{42, 58},
{42, 59},
{42, 62},
{42, 64},
{42, 65},
{42, 67},
{42, 69},
{42, 72},
{42, 73},
{42, 74},
{42, 75},
{42, 78},
{42, 84},
{42, 86},
{42, 88},
{42, 89},
{42, 90},
{42, 91},
{42, 93},
{42, 94},
{42, 96},
{42, 98},
{42, 100},
{42, 104},
{42, 107},
{42, 108},
{42, 109},
{42, 112},
{42, 113},
{42, 116},
{42, 117},
{42, 120},
{43, 46},
{43, 48},
{43, 50},
{43, 51},
{43, 52},
{43, 54},
{43, 55},
{43, 58},
{43, 59},
{43, 60},
{43, 62},
{43, 63},
{43, 66},
{43, 69},
{43, 71},
{43, 73},
{43, 74},
{43, 76},
{43, 81},
{43, 83},
{43, 84},
{43, 85},
{43, 86},
{43, 87},
{43, 90},
{43, 91},
{43, 93},
{43, 94},
{43, 99},
{43, 101},
{43, 102},
{43, 103},
{43, 105},
{43, 106},
{43, 107},
{43, 108},
{43, 109},
{43, 113},
{43, 114},
{43, 116},
{43, 117},
{43, 119},
{44, 49},
{44, 50},
{44, 51},
{44, 53},
{44, 56},
{44, 60},
{44, 61},
{44, 62},
{44, 63},
{44, 70},
{44, 72},
{44, 73},
{44, 74},
{44, 76},
{44, 77},
{44, 82},
{44, 86},
{44, 87},
{44, 90},
{44, 93},
{44, 94},
{44, 95},
{44, 97},
{44, 98},
{44, 99},
{44, 101},
{44, 102},
{44, 104},
{44, 105},
{44, 106},
{44, 107},
{44, 109},
{44, 111},
{44, 112},
{44, 113},
{44, 117},
{44, 118},
{44, 120},
{45, 57},
{45, 58},
{45, 59},
{45, 60},
{45, 61},
{45, 68},
{45, 70},
{45, 78},
{45, 79},
{45, 81},
{45, 82},
{45, 85},
{45, 88},
{45, 92},
{45, 93},
{45, 94},
{45, 95},
{45, 96},
{45, 97},
{45, 99},
{45, 100},
{45, 104},
{45, 106},
{45, 108},
{45, 109},
{45, 111},
{45, 112},
{45, 114},
{45, 115},
{45, 117},
{45, 118},
{45, 120},
{46, 48},
{46, 49},
{46, 50},
{46, 51},
{46, 53},
{46, 54},
{46, 56},
{46, 57},
{46, 58},
{46, 59},
{46, 61},
{46, 62},
{46, 63},
{46, 69},
{46, 70},
{46, 71},
{46, 72},
{46, 73},
{46, 75},
{46, 76},
{46, 81},
{46, 83},
{46, 84},
{46, 85},
{46, 86},
{46, 88},
{46, 89},
{46, 90},
{46, 91},
{46, 92},
{46, 93},
{46, 95},
{46, 101},
{46, 102},
{46, 106},
{46, 107},
{46, 109},
{46, 112},
{46, 113},
{46, 114},
{46, 116},
{46, 119},
{47, 48},
{47, 49},
{47, 50},
{47, 52},
{47, 54},
{47, 56},
{47, 59},
{47, 61},
{47, 64},
{47, 65},
{47, 66},
{47, 67},
{47, 76},
{47, 79},
{47, 81},
{47, 86},
{47, 88},
{47, 90},
{47, 92},
{47, 93},
{47, 96},
{47, 97},
{47, 102},
{47, 103},
{47, 105},
{47, 110},
{47, 112},
{47, 113},
{47, 114},
{47, 117},
{47, 119},
{48, 50},
{48, 51},
{48, 53},
{48, 55},
{48, 56},
{48, 59},
{48, 60},
{48, 61},
{48, 62},
{48, 63},
{48, 65},
{48, 68},
{48, 71},
{48, 72},
{48, 77},
{48, 78},
{48, 79},
{48, 84},
{48, 86},
{48, 89},
{48, 92},
{48, 95},
{48, 96},
{48, 98},
{48, 99},
{48, 100},
{48, 101},
{48, 103},
{48, 107},
{48, 112},
{48, 113},
{48, 114},
{48, 118},
{48, 119},
{49, 50},
{49, 51},
{49, 52},
{49, 54},
{49, 55},
{49, 58},
{49, 63},
{49, 64},
{49, 66},
{49, 68},
{49, 75},
{49, 76},
{49, 77},
{49, 78},
{49, 80},
{49, 82},
{49, 86},
{49, 88},
{49, 89},
{49, 91},
{49, 93},
{49, 94},
{49, 95},
{49, 97},
{49, 98},
{49, 100},
{49, 105},
{49, 107},
{49, 108},
{49, 111},
{49, 113},
{49, 114},
{49, 115},
{49, 116},
{49, 117},
{49, 118},
{49, 119},
{50, 54},
{50, 55},
{50, 56},
{50, 57},
{50, 59},
{50, 61},
{50, 63},
{50, 64},
{50, 67},
{50, 68},
{50, 71},
{50, 72},
{50, 73},
{50, 77},
{50, 80},
{50, 82},
{50, 87},
{50, 88},
{50, 89},
{50, 92},
{50, 93},
{50, 94},
{50, 97},
{50, 98},
{50, 102},
{50, 104},
{50, 105},
{50, 106},
{50, 107},
{50, 109},
{50, 110},
{50, 112},
{50, 113},
{50, 114},
{50, 115},
{50, 116},
{50, 120},
{51, 53},
{51, 56},
{51, 58},
{51, 60},
{51, 61},
{51, 62},
{51, 63},
{51, 64},
{51, 67},
{51, 71},
{51, 72},
{51, 74},
{51, 75},
{51, 77},
{51, 79},
{51, 81},
{51, 83},
{51, 84},
{51, 85},
{51, 86},
{51, 90},
{51, 92},
{51, 94},
{51, 97},
{51, 101},
{51, 102},
{51, 103},
{51, 107},
{51, 108},
{51, 110},
{51, 115},
{51, 118},
{52, 54},
{52, 56},
{52, 58},
{52, 59},
{52, 60},
{52, 64},
{52, 65},
{52, 67},
{52, 68},
{52, 70},
{52, 71},
{52, 72},
{52, 73},
{52, 76},
{52, 78},
{52, 79},
{52, 80},
{52, 81},
{52, 82},
{52, 83},
{52, 85},
{52, 88},
{52, 89},
{52, 95},
{52, 97},
{52, 98},
{52, 99},
{52, 100},
{52, 103},
{52, 104},
{52, 105},
{52, 109},
{52, 111},
{52, 112},
{52, 113},
{52, 116},
{52, 117},
{52, 119},
{52, 120},
{53, 56},
{53, 57},
{53, 58},
{53, 59},
{53, 60},
{53, 61},
{53, 65},
{53, 67},
{53, 69},
{53, 70},
{53, 71},
{53, 74},
{53, 75},
{53, 76},
{53, 77},
{53, 79},
{53, 80},
{53, 81},
{53, 84},
{53, 86},
{53, 88},
{53, 92},
{53, 96},
{53, 98},
{53, 99},
{53, 100},
{53, 102},
{53, 106},
{53, 107},
{53, 110},
{53, 112},
{53, 115},
{53, 116},
{53, 118},
{54, 57},
{54, 58},
{54, 59},
{54, 61},
{54, 63},
{54, 65},
{54, 66},
{54, 68},
{54, 69},
{54, 72},
{54, 74},
{54, 75},
{54, 78},
{54, 79},
{54, 80},
{54, 85},
{54, 88},
{54, 89},
{54, 90},
{54, 92},
{54, 93},
{54, 95},
{54, 96},
{54, 97},
{54, 99},
{54, 100},
{54, 101},
{54, 102},
{54, 104},
{54, 106},
{54, 108},
{54, 109},
{54, 110},
{54, 111},
{54, 113},
{54, 114},
{54, 115},
{54, 117},
{54, 118},
{55, 56},
{55, 57},
{55, 61},
{55, 67},
{55, 69},
{55, 70},
{55, 71},
{55, 72},
{55, 73},
{55, 74},
{55, 75},
{55, 76},
{55, 78},
{55, 81},
{55, 90},
{55, 92},
{55, 93},
{55, 95},
{55, 96},
{55, 100},
{55, 101},
{55, 102},
{55, 106},
{55, 107},
{55, 112},
{55, 114},
{55, 116},
{56, 59},
{56, 60},
{56, 61},
{56, 62},
{56, 63},
{56, 64},
{56, 65},
{56, 67},
{56, 68},
{56, 70},
{56, 73},
{56, 75},
{56, 76},
{56, 77},
{56, 79},
{56, 82},
{56, 83},
{56, 85},
{56, 88},
{56, 89},
{56, 92},
{56, 94},
{56, 95},
{56, 100},
{56, 102},
{56, 105},
{56, 106},
{56, 107},
{56, 109},
{56, 110},
{56, 111},
{56, 112},
{56, 113},
{56, 114},
{56, 115},
{56, 116},
{56, 117},
{56, 119},
{56, 120},
{57, 58},
{57, 60},
{57, 63},
{57, 64},
{57, 65},
{57, 71},
{57, 73},
{57, 74},
{57, 75},
{57, 77},
{57, 80},
{57, 83},
{57, 84},
{57, 87},
{57, 88},
{57, 90},
{57, 92},
{57, 93},
{57, 94},
{57, 95},
{57, 97},
{57, 98},
{57, 99},
{57, 100},
{57, 101},
{57, 103},
{57, 104},
{57, 105},
{57, 106},
{57, 108},
{57, 109},
{57, 110},
{57, 112},
{57, 119},
{58, 60},
{58, 61},
{58, 67},
{58, 69},
{58, 70},
{58, 71},
{58, 74},
{58, 76},
{58, 77},
{58, 78},
{58, 80},
{58, 82},
{58, 83},
{58, 84},
{58, 85},
{58, 87},
{58, 88},
{58, 89},
{58, 92},
{58, 96},
{58, 99},
{58, 101},
{58, 103},
{58, 104},
{58, 106},
{58, 108},
{58, 109},
{58, 115},
{58, 116},
{58, 119},
{59, 61},
{59, 62},
{59, 64},
{59, 67},
{59, 68},
{59, 69},
{59, 70},
{59, 71},
{59, 72},
{59, 73},
{59, 74},
{59, 75},
{59, 76},
{59, 77},
{59, 82},
{59, 83},
{59, 84},
{59, 85},
{59, 86},
{59, 87},
{59, 90},
{59, 91},
{59, 94},
{59, 96},
{59, 97},
{59, 98},
{59, 99},
{59, 101},
{59, 102},
{59, 103},
{59, 105},
{59, 107},
{59, 109},
{59, 114},
{59, 115},
{59, 117},
{59, 118},
{59, 119},
{59, 120},
{60, 61},
{60, 62},
{60, 68},
{60, 69},
{60, 72},
{60, 73},
{60, 77},
{60, 79},
{60, 83},
{60, 84},
{60, 86},
{60, 88},
{60, 90},
{60, 91},
{60, 92},
{60, 94},
{60, 96},
{60, 101},
{60, 102},
{60, 103},
{60, 105},
{60, 106},
{60, 108},
{60, 110},
{60, 112},
{60, 113},
{60, 114},
{60, 115},
{60, 118},
{60, 120},
{61, 63},
{61, 64},
{61, 66},
{61, 67},
{61, 69},
{61, 70},
{61, 72},
{61, 74},
{61, 75},
{61, 79},
{61, 80},
{61, 81},
{61, 84},
{61, 87},
{61, 92},
{61, 93},
{61, 98},
{61, 100},
{61, 103},
{61, 105},
{61, 106},
{61, 107},
{61, 108},
{61, 109},
{61, 110},
{61, 111},
{61, 112},
{61, 114},
{61, 115},
{61, 118},
{61, 119},
{61, 120},
{62, 63},
{62, 65},
{62, 68},
{62, 70},
{62, 71},
{62, 72},
{62, 73},
{62, 75},
{62, 76},
{62, 78},
{62, 84},
{62, 85},
{62, 89},
{62, 90},
{62, 91},
{62, 92},
{62, 95},
{62, 97},
{62, 99},
{62, 101},
{62, 102},
{62, 104},
{62, 112},
{62, 113},
{62, 114},
{62, 115},
{62, 116},
{62, 118},
{63, 66},
{63, 67},
{63, 70},
{63, 71},
{63, 72},
{63, 73},
{63, 75},
{63, 79},
{63, 80},
{63, 81},
{63, 82},
{63, 83},
{63, 84},
{63, 85},
{63, 86},
{63, 88},
{63, 89},
{63, 92},
{63, 97},
{63, 99},
{63, 101},
{63, 103},
{63, 104},
{63, 105},
{63, 106},
{63, 107},
{63, 109},
{63, 110},
{63, 111},
{63, 118},
{63, 119},
{64, 65},
{64, 70},
{64, 72},
{64, 75},
{64, 76},
{64, 77},
{64, 78},
{64, 79},
{64, 86},
{64, 87},
{64, 88},
{64, 89},
{64, 91},
{64, 92},
{64, 93},
{64, 94},
{64, 97},
{64, 99},
{64, 101},
{64, 102},
{64, 103},
{64, 105},
{64, 111},
{64, 112},
{64, 114},
{64, 115},
{64, 116},
{64, 117},
{64, 118},
{65, 66},
{65, 68},
{65, 69},
{65, 71},
{65, 74},
{65, 76},
{65, 78},
{65, 79},
{65, 82},
{65, 83},
{65, 84},
{65, 86},
{65, 89},
{65, 94},
{65, 97},
{65, 100},
{65, 101},
{65, 102},
{65, 104},
{65, 106},
{65, 108},
{65, 109},
{65, 110},
{65, 111},
{65, 113},
{65, 115},
{65, 116},
{65, 119},
{66, 71},
{66, 73},
{66, 74},
{66, 77},
{66, 79},
{66, 81},
{66, 84},
{66, 90},
{66, 92},
{66, 93},
{66, 94},
{66, 96},
{66, 98},
{66, 102},
{66, 105},
{66, 111},
{66, 113},
{66, 115},
{66, 116},
{66, 117},
{67, 70},
{67, 71},
{67, 73},
{67, 75},
{67, 76},
{67, 77},
{67, 78},
{67, 79},
{67, 85},
{67, 87},
{67, 88},
{67, 91},
{67, 92},
{67, 93},
{67, 95},
{67, 96},
{67, 99},
{67, 104},
{67, 106},
{67, 108},
{67, 109},
{67, 111},
{67, 115},
{67, 116},
{67, 118},
{67, 119},
{67, 120},
{68, 70},
{68, 74},
{68, 75},
{68, 76},
{68, 77},
{68, 78},
{68, 80},
{68, 81},
{68, 82},
{68, 84},
{68, 86},
{68, 92},
{68, 94},
{68, 95},
{68, 97},
{68, 98},
{68, 99},
{68, 101},
{68, 102},
{68, 103},
{68, 105},
{68, 108},
{68, 111},
{68, 112},
{68, 115},
{68, 116},
{68, 117},
{68, 119},
{69, 71},
{69, 74},
{69, 76},
{69, 81},
{69, 83},
{69, 85},
{69, 87},
{69, 90},
{69, 98},
{69, 99},
{69, 102},
{69, 103},
{69, 104},
{69, 105},
{69, 106},
{69, 108},
{69, 111},
{69, 112},
{69, 114},
{69, 115},
{69, 119},
{70, 73},
{70, 75},
{70, 76},
{70, 78},
{70, 79},
{70, 80},
{70, 83},
{70, 86},
{70, 89},
{70, 90},
{70, 91},
{70, 95},
{70, 96},
{70, 98},
{70, 102},
{70, 107},
{70, 111},
{70, 112},
{70, 115},
{70, 116},
{70, 120},
{71, 72},
{71, 73},
{71, 74},
{71, 75},
{71, 76},
{71, 78},
{71, 79},
{71, 80},
{71, 83},
{71, 84},
{71, 87},
{71, 89},
{71, 90},
{71, 91},
{71, 93},
{71, 94},
{71, 95},
{71, 96},
{71, 99},
{71, 100},
{71, 101},
{71, 105},
{71, 106},
{71, 108},
{71, 111},
{71, 115},
{71, 118},
{72, 76},
{72, 77},
{72, 80},
{72, 81},
{72, 82},
{72, 83},
{72, 88},
{72, 91},
{72, 92},
{72, 95},
{72, 96},
{72, 97},
{72, 98},
{72, 103},
{72, 105},
{72, 106},
{72, 107},
{72, 109},
{72, 112},
{72, 113},
{72, 114},
{72, 115},
{72, 116},
{72, 118},
{72, 120},
{73, 74},
{73, 79},
{73, 80},
{73, 85},
{73, 86},
{73, 89},
{73, 90},
{73, 92},
{73, 93},
{73, 100},
{73, 101},
{73, 102},
{73, 105},
{73, 106},
{73, 107},
{73, 108},
{73, 109},
{73, 111},
{73, 113},
{73, 115},
{73, 117},
{73, 119},
{73, 120},
{74, 75},
{74, 76},
{74, 78},
{74, 82},
{74, 83},
{74, 86},
{74, 88},
{74, 89},
{74, 90},
{74, 91},
{74, 92},
{74, 99},
{74, 102},
{74, 103},
{74, 104},
{74, 108},
{74, 110},
{74, 113},
{74, 116},
{74, 118},
{74, 120},
{75, 78},
{75, 79},
{75, 80},
{75, 81},
{75, 87},
{75, 89},
{75, 91},
{75, 92},
{75, 93},
{75, 95},
{75, 98},
{75, 99},
{75, 101},
{75, 102},
{75, 104},
{75, 105},
{75, 106},
{75, 107},
{75, 110},
{75, 111},
{75, 112},
{75, 113},
{75, 115},
{75, 119},
{75, 120},
{76, 77},
{76, 78},
{76, 79},
{76, 81},
{76, 83},
{76, 87},
{76, 89},
{76, 91},
{76, 93},
{76, 96},
{76, 100},
{76, 102},
{76, 103},
{76, 104},
{76, 105},
{76, 107},
{76, 109},
{76, 110},
{76, 111},
{76, 112},
{76, 115},
{76, 116},
{76, 118},
{77, 81},
{77, 82},
{77, 86},
{77, 96},
{77, 98},
{77, 102},
{77, 104},
{77, 105},
{77, 113},
{77, 114},
{77, 115},
{77, 116},
{77, 117},
{77, 118},
{78, 80},
{78, 81},
{78, 86},
{78, 87},
{78, 88},
{78, 89},
{78, 91},
{78, 93},
{78, 94},
{78, 96},
{78, 97},
{78, 98},
{78, 99},
{78, 100},
{78, 102},
{78, 110},
{78, 113},
{78, 115},
{79, 82},
{79, 83},
{79, 84},
{79, 85},
{79, 89},
{79, 90},
{79, 94},
{79, 98},
{79, 101},
{79, 102},
{79, 104},
{79, 106},
{79, 108},
{79, 110},
{79, 112},
{79, 115},
{79, 116},
{79, 118},
{79, 119},
{79, 120},
{80, 83},
{80, 86},
{80, 87},
{80, 89},
{80, 90},
{80, 91},
{80, 92},
{80, 93},
{80, 96},
{80, 98},
{80, 100},
{80, 103},
{80, 104},
{80, 105},
{80, 110},
{80, 111},
{80, 116},
{80, 117},
{80, 118},
{81, 83},
{81, 85},
{81, 88},
{81, 89},
{81, 90},
{81, 92},
{81, 93},
{81, 95},
{81, 96},
{81, 98},
{81, 99},
{81, 101},
{81, 102},
{81, 103},
{81, 105},
{81, 106},
{81, 108},
{81, 109},
{81, 110},
{81, 113},
{81, 116},
{81, 120},
{82, 84},
{82, 85},
{82, 88},
{82, 90},
{82, 91},
{82, 94},
{82, 96},
{82, 97},
{82, 103},
{82, 104},
{82, 108},
{82, 109},
{82, 112},
{82, 114},
{82, 115},
{82, 116},
{82, 117},
{82, 118},
{82, 120},
{83, 85},
{83, 87},
{83, 88},
{83, 90},
{83, 91},
{83, 93},
{83, 97},
{83, 99},
{83, 102},
{83, 104},
{83, 106},
{83, 107},
{83, 114},
{83, 115},
{83, 116},
{83, 117},
{83, 118},
{83, 119},
{83, 120},
{84, 85},
{84, 86},
{84, 87},
{84, 88},
{84, 90},
{84, 92},
{84, 93},
{84, 95},
{84, 96},
{84, 98},
{84, 99},
{84, 100},
{84, 102},
{84, 106},
{84, 109},
{84, 111},
{84, 112},
{84, 113},
{84, 114},
{84, 117},
{84, 118},
{84, 120},
{85, 86},
{85, 87},
{85, 91},
{85, 92},
{85, 95},
{85, 99},
{85, 101},
{85, 102},
{85, 103},
{85, 104},
{85, 105},
{85, 106},
{85, 109},
{85, 110},
{85, 112},
{85, 113},
{85, 118},
{86, 87},
{86, 88},
{86, 90},
{86, 93},
{86, 94},
{86, 96},
{86, 97},
{86, 98},
{86, 103},
{86, 104},
{86, 105},
{86, 106},
{86, 107},
{86, 108},
{86, 110},
{86, 111},
{86, 113},
{86, 115},
{86, 116},
{86, 119},
{86, 120},
{87, 90},
{87, 91},
{87, 92},
{87, 93},
{87, 94},
{87, 95},
{87, 97},
{87, 99},
{87, 103},
{87, 110},
{87, 111},
{87, 115},
{87, 118},
{88, 89},
{88, 91},
{88, 92},
{88, 95},
{88, 96},
{88, 97},
{88, 98},
{88, 100},
{88, 107},
{88, 110},
{88, 111},
{88, 112},
{88, 113},
{88, 114},
{88, 116},
{88, 117},
{88, 118},
{88, 119},
{88, 120},
{89, 90},
{89, 91},
{89, 92},
{89, 93},
{89, 98},
{89, 102},
{89, 104},
{89, 105},
{89, 106},
{89, 108},
{89, 109},
{89, 115},
{89, 116},
{89, 119},
{90, 91},
{90, 92},
{90, 96},
{90, 97},
{90, 98},
{90, 99},
{90, 101},
{90, 102},
{90, 103},
{90, 104},
{90, 105},
{90, 107},
{90, 108},
{90, 109},
{90, 110},
{90, 115},
{90, 118},
{91, 93},
{91, 94},
{91, 96},
{91, 97},
{91, 98},
{91, 100},
{91, 101},
{91, 102},
{91, 104},
{91, 105},
{91, 108},
{91, 109},
{91, 113},
{91, 115},
{91, 117},
{91, 118},
{91, 119},
{92, 93},
{92, 97},
{92, 98},
{92, 99},
{92, 101},
{92, 102},
{92, 105},
{92, 111},
{92, 112},
{92, 117},
{92, 119},
{93, 95},
{93, 98},
{93, 99},
{93, 100},
{93, 101},
{93, 102},
{93, 103},
{93, 105},
{93, 106},
{93, 107},
{93, 111},
{93, 112},
{93, 113},
{93, 114},
{93, 117},
{93, 119},
{94, 98},
{94, 101},
{94, 102},
{94, 103},
{94, 105},
{94, 106},
{94, 108},
{94, 110},
{94, 111},
{94, 112},
{94, 116},
{94, 117},
{94, 118},
{95, 99},
{95, 100},
{95, 101},
{95, 102},
{95, 104},
{95, 105},
{95, 107},
{95, 108},
{95, 109},
{95, 111},
{95, 113},
{95, 115},
{95, 117},
{95, 118},
{95, 119},
{95, 120},
{96, 99},
{96, 101},
{96, 102},
{96, 103},
{96, 106},
{96, 107},
{96, 108},
{96, 109},
{96, 115},
{96, 116},
{96, 118},
{97, 98},
{97, 99},
{97, 100},
{97, 101},
{97, 107},
{97, 108},
{97, 109},
{97, 112},
{97, 113},
{97, 115},
{97, 116},
{97, 120},
{98, 99},
{98, 103},
{98, 104},
{98, 105},
{98, 107},
{98, 108},
{98, 109},
{98, 110},
{98, 112},
{98, 113},
{98, 114},
{98, 115},
{98, 116},
{98, 117},
{98, 118},
{99, 100},
{99, 103},
{99, 104},
{99, 107},
{99, 110},
{99, 112},
{99, 114},
{99, 115},
{100, 102},
{100, 106},
{100, 107},
{100, 108},
{100, 112},
{100, 115},
{100, 118},
{100, 119},
{101, 102},
{101, 104},
{101, 109},
{101, 116},
{101, 120},
{102, 104},
{102, 105},
{102, 106},
{102, 108},
{102, 109},
{102, 110},
{102, 111},
{102, 113},
{102, 116},
{102, 118},
{102, 120},
{103, 104},
{103, 110},
{103, 111},
{103, 113},
{103, 115},
{103, 117},
{103, 119},
{104, 105},
{104, 106},
{104, 107},
{104, 108},
{104, 109},
{104, 110},
{104, 111},
{104, 117},
{104, 120},
{105, 106},
{105, 107},
{105, 109},
{105, 112},
{105, 114},
{105, 115},
{105, 118},
{106, 108},
{106, 110},
{106, 113},
{106, 114},
{106, 117},
{107, 109},
{107, 110},
{107, 111},
{107, 115},
{107, 116},
{107, 119},
{108, 109},
{108, 111},
{108, 112},
{108, 114},
{108, 116},
{109, 111},
{109, 112},
{109, 113},
{109, 115},
{109, 116},
{109, 117},
{110, 112},
{110, 114},
{110, 115},
{110, 116},
{110, 117},
{110, 119},
{110, 120},
{111, 113},
{111, 114},
{111, 117},
{111, 118},
{111, 119},
{111, 120},
{112, 115},
{112, 116},
{112, 118},
{112, 119},
{113, 118},
{114, 117},
{114, 118},
{114, 120},
{115, 116},
{115, 117},
{115, 119},
{115, 120},
{116, 118},
{116, 120},
{117, 119},
{118, 119}}
